18 965
529 7 485 7 272 7 90 9 798 11 593 18
529 7 485 7 272 7 90 9 798 11 593 18
529 7 485 7 272 7 90 9 798 11 593 18
529 7 485 7 272 7 90 9 798 11 593 18
525 7 446 7 265 7 65 9 890 11 728 18
519 7 499 7 409 7 251 9 141 18
525 7 445 7 264 7 63 9 889 11 721 18
525 7 445 7 264 7 63 9 889 11 721 18
525 7 505 7 381 7 218 9 50 11 850 15 664 21
525 7 479 7 355 7 106 9 927 13
525 7 504 7 427 11
525 7 504 7 427 11
525 7 504 7 427 11
525 7 479 7 356 7 107 9 6 11 781 15 614 22
525 7 479 7 356 7 107 9 6 11 781 15 614 22
525 7 479 7 356 7 107 9 6 11 781 15 614 22
525 7 505 7 381 7 218 9 50 11 850 15 664 21
525 7 479 7 355 7 106 9 927 13
